Instance Name : rc106
Date : 2022-07-19
Solution
Route 1 : 92 67 33 30 32 34 50 80
Route 2 : 31 29 27 26 28 89 91
Route 3 : 14 47 16 15 11 10 9 13 17
Route 4 : 69 98 53 88 90
Route 5 : 81 61 68
Route 6 : 42 44 41 71 94 93 96 54
Route 7 : 99 86 57 22 49 20 24
Route 8 : 95 62 63 85 76 51 84 56 66
Route 9 : 64 19 23 21 18 48 25 77
Route 10 : 72 38 39 40 36 35 37 43 70
Route 11 : 82 12 78 73 79 60 55
Route 12 : 65 83 52 87 59 75 97 58 74
Route 13 : 2 45 5 8 7 6 46 4 3 1 100
